&CONTROL
    calculation='scf', disk_io='low', prefix='pwscf',nstep=300
    pseudo_dir='/users/ymanyi/apps/PSEUDOPOTENTIALS/'
    outdir='./tmp',tprnfor=.true., tstress=.true.
/

&SYSTEM
    a     =  1.43208e+01
    c     =  3.00000e+01
    ibrav = 4
    degauss     =  1.00000e-02
    ecutrho     =  4.00000e+02
    ecutwfc     =  8.00000e+01
    nat         = 392
    ntyp        = 3
    occupations = "smearing"
    smearing    = "gaussian"
    tot_charge = 0
/

&ELECTRONS
    diagonalization = 'david'
    conv_thr         =  1.00000e-07
    electron_maxstep = 2000
    mixing_beta      =  3.00000e-01
    startingpot      = "atomic"
    startingwfc      = "atomic+random"
/

K_POINTS {gamma}

ATOMIC_SPECIES
H    1.00794   H.pbe-rrkjus_psl.1.0.0.UPF
N   14.00674   N.pbe-n-rrkjus_psl.1.0.0.UPF
Li   6.94100   Li.pbe-sl-rrkjus_psl.1.0.0.UPF

ATOMIC_POSITIONS {angstrom}
Li    -5.887     10.24     3.368
Li    4.559     10.749     3.192
Li    6.689     11.267     4.595
Li    12.203     2.27     4.561
Li    10.185     1.208     3.328
Li    8.543     4.23     3.401
Li    4.882     4.137     3.322
Li    4.902     2.243     4.919
Li    6.459     5.074     4.674
Li    6.747     7.321     3.283
Li    8.398     2.168     4.775
Li    8.546     8.328     4.842
Li    0.965     4.554     3.184
Li    10.265     5.789     4.881
Li    3.17     5.199     4.832
Li    3.631     1.36     3.0
N    10.276     3.074     4.086
N    8.504     0.146     4.128
N    12.011     0.101     4.451
N    6.707     3.241     4.115
N    5.005     6.333     4.203
N    3.255     3.15     4.132
N    8.289     6.178     4.411
N    4.716     0.011     4.352
N    -5.922     12.345     4.301
N    6.761     9.277     4.172
H    5.263     0.195     3.488
H    1.366     0.907     3.938
H    2.263     2.873     3.999
H    12.405     0.387     3.533
H    7.752     0.664     3.633
H    10.214     3.642     4.954
H    8.726     6.435     3.504
H    4.082     6.776     4.016
H    5.907     9.134     3.601
H    6.591     2.218     3.968
Li    -2.423     4.292     3.395
Li    1.257     10.514     3.378
Li    2.883     11.607     4.757
Li    -2.163     10.336     3.31
Li    -4.15     11.275     4.404
Li    -0.473     11.904     4.841
Li    1.671     8.282     4.736
Li    -0.719     5.334     4.725
Li    -2.379     8.357     4.848
Li    4.806     8.329     4.992
Li    -0.545     7.378     3.384
N    3.209     9.607     4.278
N    -0.383     9.329     4.089
N    1.142     6.229     4.391
N    -2.243     6.358     4.125
N    -0.521     3.418     4.13
N    -4.058     9.42     4.104
H    1.698     6.509     3.558
H    -3.008     6.882     3.656
H    -0.703     9.529     5.056
H    -0.053     2.496     4.019
H    -4.069     8.424     3.816
H    3.383     8.778     3.671
Li    -1.83987     8.55301     18.4167
N    -0.297218     7.34048     19.2483
H    0.0201443     7.15002     20.2538
Li    4.66615     -0.0539776     10.8852
Li    3.77519     9.70762     15.5001
Li    3.89396     5.85055     10.571
Li    6.57275     9.55888     16.211
Li    7.19125     10.7615     14.1751
Li    8.27318     8.5753     18.4741
Li    -2.24785     7.93736     9.2862
Li    6.77014     11.5268     18.2011
Li    -2.28991     6.64657     19.7478
Li    8.95631     4.4878     7.9889
Li    5.79628     6.64104     11.8761
Li    1.04471     4.32137     17.3112
Li    8.19616     1.21306     18.4485
Li    8.03118     2.69045     8.79532
N    3.04207     1.45954     10.0032
N    -0.373178     1.18718     9.92349
N    1.1304     0.130531     13.1777
N    4.72151     0.0218281     12.9112
N    2.89276     3.09167     13.4407
N    -0.415406     1.20289     19.2407
N    1.43188     2.25456     16.3894
N    -0.375953     3.18272     13.1167
N    -0.807571     5.36369     16.645
H    0.215998     0.536897     10.5089
H    2.19096     0.779954     9.95613
H    4.8171     0.799617     13.6811
H    0.521757     0.671314     13.8255
H    3.50462     2.55384     12.7842
H    -1.23501     2.91298     12.5619
H    0.737377     2.75991     17.0085
H    -0.845375     4.59492     16.1155
H    -0.794275     1.12823     20.1586
Li    6.69888     7.08531     5.43994
Li    3.80086     6.95952     7.56365
Li    -2.42407     10.6873     17.2069
Li    7.03399     9.05043     10.9239
Li    -2.20946     6.35865     15.6704
Li    5.3468     12.2967     10.1334
Li    2.06806     6.13488     9.16645
Li    6.54905     10.8243     8.99356
Li    -2.19149     3.98551     12.8518
Li    -4.22171     11.4342     14.2442
Li    -0.315946     1.1152     12.3762
Li    1.17947     11.133     17.3858
Li    5.90412     0.676335     17.5691
Li    7.0585     8.04874     21.7705
Li    3.22038     5.18713     18.6372
Li    -4.47059     9.70814     15.6479
Li    10.6307     3.34244     10.4311
Li    1.35983     6.38515     18.7135
Li    3.07628     7.25126     16.8092
Li    1.43153     2.2369     18.9063
Li    12.04     2.20397     18.7458
Li    6.67229     3.062     18.6975
Li    -1.00706     5.51668     18.4193
Li    4.87807     10.7875     5.87933
Li    -0.456585     11.851     11.8609
Li    12.0297     2.22276     9.2157
Li    -5.57262     10.0607     8.10482
Li    -0.511343     1.43298     8.08766
N    6.6268     11.5718     7.15614
N    6.79636     9.46852     12.9349
N    4.97567     10.531     10.3718
N    6.83851     7.18173     10.2799
N    8.29161     5.92325     13.4454
N    8.47258     8.86889     16.5783
N    4.7002     6.13601     13.3664
N    6.71736     11.4646     16.3156
N    3.27852     11.5029     16.2565
N    3.33726     9.716     13.2925
N    4.94454     8.36689     16.2301
N    5.10997     10.4775     18.9355
N    1.22657     8.21592     16.2634
H    5.88429     12.1128     7.56359
H    4.8867     9.79062     11.0869
H    6.88781     6.16367     9.99399
H    7.62165     6.68501     13.2605
H    4.1159     6.89306     13.6164
H    7.15819     8.33025     12.5879
H    2.74068     8.879     12.7402
H    5.58872     7.94704     15.5732
H    2.14239     8.63925     16.504
H    2.7604     11.56     17.1442
H    7.97376     8.00975     16.2826
H    6.56764     12.2171     15.6392
H    4.99283     9.69902     19.6187
Li    -0.341982     7.31596     16.9243
Li    7.52876     4.44806     20.9758
Li    4.76719     2.16183     9.55562
Li    -0.526797     7.22571     12.2876
Li    5.10129     7.72499     9.70552
Li    1.3094     2.2266     13.3149
Li    3.08223     5.46844     14.0929
Li    10.1041     7.20072     12.3879
Li    -1.65808     11.584     14.6275
Li    -0.832176     11.2455     9.20887
N    11.8857     0.204338     13.2902
N    11.8851     2.08785     16.3185
N    8.39954     0.0553323     13.3337
N    10.2892     3.1049     13.1234
N    10.6318     0.929829     10.0489
H    9.70424     1.18667     10.0622
H    5.67508     12.3718     13.7271
H    9.00245     0.248856     12.5001
H    9.90621     2.32883     12.652
H    12.7998     2.47694     16.8413
Li    3.03608     3.14572     20.2411
Li    5.1908     9.03383     13.6036
Li    8.20059     5.42491     15.3185
Li    -2.42722     10.4949     12.5095
Li    11.4905     1.959     14.2726
Li    6.67705     10.2217     20.2094
Li    9.7424     7.11482     15.4307
Li    4.66688     3.66797     14.7179
Li    6.42378     5.38041     18.9697
N    -5.79828     10.1829     10.0926
N    -4.15209     9.57432     13.3858
N    -3.93509     11.5122     16.1244
N    -2.33735     8.25003     16.6248
N    -5.70746     10.7166     19.0995
H    -6.09224     11.1883     10.2192
H    -3.65445     9.10386     14.1355
H    -2.31581     8.75522     15.7548
H    -3.80522     11.5758     17.2278
H    -4.7938     11.2281     18.9529
Li    0.687346     3.42069     5.72221
Li    8.3941     2.21564     13.8537
Li    -0.502022     7.19026     8.14438
Li    3.08236     9.3181     6.32085
Li    4.69477     5.85919     15.5679
Li    6.69597     3.1996     6.03463
Li    3.06006     3.46807     6.60229
Li    3.12079     3.73803     10.4484
Li    5.50595     2.25878     11.7258
Li    3.13416     1.62119     8.07542
Li    2.65765     1.46906     5.3444
Li    10.3877     5.35893     9.61583
Li    10.0858     5.25098     18.5935
Li    -2.62923     10.9655     8.12759
Li    11.7601     3.95513     7.72091
Li    4.6693     4.25814     12.4348
Li    1.38944     4.40325     12.9353
Li    1.28411     8.39521     9.3049
N    6.71898     5.35103     6.87579
N    4.77486     2.48676     7.48062
N    8.50598     2.18559     6.96653
H    7.69639     1.44348     7.18032
H    5.00747     3.33209     6.9213
H    6.84352     4.66783     7.71139
Li    -6.15054     11.2395     6.20935
Li    -2.55894     12.2071     19.8521
Li    -3.90398     9.287     19.4752
Li    5.00866     8.44004     18.1963
Li    -2.30611     4.32069     17.3784
Li    9.48907     2.79386     18.474
N    -0.349132     11.3938     16.0839
N    1.42534     10.4509     19.1115
N    -2.10452     10.3023     19.6727
H    -0.306678     10.5505     16.6885
H    1.74335     9.79865     19.8954
H    -2.53585     10.409     20.6153
Li    -2.00106     5.56994     11.1655
Li    3.18213     11.4799     9.70388
N    -2.26574     4.44353     19.2234
H    11.5839     4.3288     20.091
Li    12.1212     0.146112     19.2937
Li    -0.282543     11.6497     19.6407
Li    6.38443     5.49075     14.096
Li    8.23581     0.421587     15.6751
Li    8.14392     4.40937     17.3054
Li    3.11497     9.80878     18.1958
Li    9.77017     1.12331     8.16216
Li    -0.564014     9.03256     15.2372
Li    0.963771     10.3204     5.78361
Li    -0.25551     1.09694     17.4022
Li    4.71204     3.58857     17.2535
Li    4.86349     2.14286     19.3899
Li    7.04801     7.11599     7.74296
Li    -3.7623     7.30445     17.4364
Li    1.46559     6.3747     11.2665
Li    6.57778     2.25108     15.5285
Li    3.99836     11.1502     12.1535
Li    3.59119     1.57123     14.8956
Li    -0.363154     3.287     19.795
N    6.59222     2.90293     13.4312
N    9.79008     5.51416     16.3361
N    6.36342     4.9965     16.2449
N    8.48375     2.06079     16.7794
N    10.3688     0.987248     19.1722
N    8.36509     4.22648     19.2345
N    6.38467     1.09355     19.2848
N    4.9044     2.08952     16.3603
N    -3.98918     7.28956     19.3707
N    4.85913     4.13988     19.3339
N    1.32248     4.20634     19.259
N    3.03256     1.30494     19.8569
N    6.64465     7.21421     18.9487
N    3.24501     7.15054     19.2067
N    2.71641     5.26592     15.9781
H    7.09413     3.63008     13.1468
H    8.23207     2.75795     16.0767
H    4.85605     1.02559     16.0838
H    6.4985     3.96652     16.0147
H    6.71563     1.04447     20.302
H    2.91902     4.47677     16.6531
H    5.28433     4.6755     20.1663
H    1.50058     5.05633     19.9009
H    4.15743     6.54801     19.4615
H    2.76561     1.47927     20.9599
H    10.8053     5.10526     16.1461
H    9.03301     3.90551     19.9258
H    -3.94406     7.62535     20.4337
H    10.3341     1.11776     20.1769
H    5.89459     7.468     19.7532
Li    1.28057     5.99242     6.23029
Li    4.83886     4.23132     8.47929
Li    -4.09174     11.3639     9.5333
Li    -0.585355     5.38931     14.1657
Li    6.07269     0.874695     8.15269
Li    -2.31905     6.13495     6.361
Li    -0.180395     7.53495     5.87528
Li    3.00767     1.24052     17.3049
Li    2.08425     3.52194     15.2056
Li    -0.190261     9.23654     10.9989
Li    10.4323     4.99855     13.6166
Li    4.94081     10.8774     16.9433
Li    3.1178     9.48633     10.5571
Li    8.59361     4.4983     12.2682
Li    11.5988     0.268608     15.4752
Li    8.8039     0.332901     6.16676
Li    8.29824     8.7122     13.9502
Li    2.78121     1.03207     12.1465
Li    11.518     1.44211     12.07
Li    0.696632     10.9315     14.5006
Li    -4.07894     7.28649     7.89857
Li    8.38555     5.71926     6.27884
Li    10.4545     2.28766     6.1502
Li    1.16791     6.35594     15.61
Li    -3.73927     9.766     6.25504
Li    6.63079     0.782734     13.4213
Li    0.934942     8.57513     18.1922
Li    6.26626     11.2495     11.8279
Li    3.0589     11.4965     14.2828
Li    -0.922793     2.47218     14.9779
Li    -0.528791     3.10502     10.6843
Li    8.01713     2.16111     11.2967
Li    0.646453     4.08621     8.1641
Li    1.48784     0.419199     15.7463
Li    -0.406215     9.3748     19.7671
Li    1.71214     8.39044     14.2024
Li    8.55878     7.98175     9.69412
Li    1.18761     0.259341     19.4499
Li    8.39173     6.74956     19.7287
Li    -6.01442     12.4901     8.24399
Li    -5.55726     10.6155     12.561
Li    13.6362     0.744829     5.59523
Li    4.86528     0.126814     6.43256
Li    1.37899     10.4762     12.4294
Li    10.0279     3.34899     15.8384
Li    6.35139     6.7943     17.1138
Li    1.21888     2.24319     9.4398
N    3.20331     5.32456     7.26444
N    3.13964     7.4849     10.2091
N    1.23089     8.69458     7.09205
N    -0.410857     5.39855     7.00335
N    4.80762     8.60843     7.17345
N    1.18073     2.39616     7.31914
N    1.66992     4.63682     10.1388
N    5.02068     4.22365     10.5201
N    2.9851     11.615     6.98381
N    -0.578134     7.52181     10.188
N    -2.28414     8.15763     7.23683
N    -0.224857     9.50243     13.1492
N    -2.3308     10.5704     9.96437
N    1.50223     10.3588     10.1845
N    -0.60675     11.636     7.25999
N    -4.29406     11.5129     7.22678
N    -2.28653     4.14803     9.65884
N    -2.50253     6.17455     13.4202
N    1.02903     6.1433     13.3829
H    1.08267     1.47923     6.92236
H    -1.17372     5.49268     7.71623
H    -2.82664     7.668     6.52605
H    -4.55764     12.1041     6.38036
H    -1.58442     4.73758     9.15876
H    5.65446     7.89747     7.23646
H    1.66332     7.8948     7.587
H    3.63454     12.4775     6.98078
H    2.9141     4.71848     8.01011
H    6.0514     4.17193     10.4242
H    0.879706     4.58071     10.7632
H    3.15816     7.69957     11.2421
H    0.312913     12.0054     7.42835
H    1.44066     11.4328     10.3745
H    -2.30553     9.65821     10.3867
H    -0.375115     6.53831     9.8731
H    1.94501     6.41213     13.3898
H    -2.34449     7.22588     13.6877
H    -1.16189     9.17758     13.3176
Li    -4.30057     9.31758     10.9305
Li    8.3539     6.7415     11.4334
Li    1.59817     10.4338     8.17645
Li    -6.00611     10.6119     17.2563
Li    -0.944002     9.48303     7.41168
Li    4.39995     10.0128     8.29947
Li    4.84071     5.70383     6.29856
Li    -1.14431     3.52009     6.48283
Li    10.2083     1.00963     17.1243
Li    6.63014     9.31991     6.53601
N    12.0435     2.03703     7.01107
N    10.1821     7.19024     10.583
N    8.11696     8.52734     7.25374
N    10.2982     5.42963     7.02676
N    8.76375     4.25381     9.96084
H    11.9541     1.06355     6.73693
H    9.00862     8.30581     6.67912
H    10.4279     4.71667     6.2872
H    7.95545     4.93145     10.1326
H    -3.25477     7.38433     11.1471
Li    2.80977     11.4999     19.5969
N    6.35094     0.880545     10.0723
H    7.4537     0.799674     10.0179
N    7.10772     6.10538     22.1693
H    2.95978     7.33357     20.2371
H    6.2967     5.74756     22.6978
H    7.88147     6.03299     22.9021
N    7.61255     10.0572     21.9011
H    7.48016     10.4545     22.8303
H    -5.69245     10.4084     21.973
H    -5.58633     10.5134     20.1533
